% demand
num_movements = 34;
loading_factor = [950, 1100, 850, 1350, 1600, 1750, 1500, 1750, 1450, 2000, 1000, 1400, 950, 900, 1750, 1450, 1300, 1400, 850, 800, 1250, 1200, 1900, 2000, 1950, 1750, 1150, 1100, 950, 1500, 1900, 900, 1000, 1700];
pickup_time = [0, 0, 0, 0, 0, 0, 0, 0, 1, 2, 2, 2, 2, 3, 3, 3, 3, 3, 4, 4, 4, 4, 5, 5, 5, 5, 6, 6, 6, 6, 6, 6, 6, 6];
delivery_time = [2, 1, 3, 2, 3, 3, 1, 2, 4, 3, 3, 4, 4, 4, 4, 4, 5, 4, 5, 5, 5, 5, 6, 6, 6, 6, 7, 7, 7, 7, 7, 7, 7, 7];

% transporter definition
total_capacity = 11000;
num_decks = 4;
capacity = [3000, 3000, 1000, 4000];

% ways out of decks
num_ways_out = 2;
paths_out = array3d(decks, ways_out, decks, [
% ways out of deck d1
2, 4, 0, 0, 3, 4, 0, 0, 

% ways out of deck d2
4, 0, 0, 0, 0, 0, 0, 0,	

% ways out of deck d3
4, 0, 0, 0, 0, 0, 0, 0,	

% ways out of deck d4
0, 0, 0, 0,	0, 0, 0, 0,	

]);

